
(set-logic ALL) 

(declare-datatype MyList ((Nil) (Cons (head Real) (tail MyList)) )) 
(declare-fun l0 () MyList) 
(declare-fun l1 () MyList) 
(declare-fun l2 () MyList) 
(declare-fun l3 () MyList) 
(declare-fun i0 () Real) 
(declare-fun i1 () Real) 
(assert (is-Cons Nil) )
(assert (not (= l3 Nil)) )
(assert (and (= l1 Nil) (is-Nil Nil)) )
(assert (is-Cons l0) )
(assert (is-Cons l3) )
(assert (or (= l1 l1) (= l2 Nil)) )
(assert (or (is-Nil l0) (= l0 l3)) )
(assert (or (= l0 l3) (= l3 Nil) (= l3 Nil)) )
(check-sat)
